Geographic Exponential Decay
20 84 212 162 217 310 286 66 314 188 265 317 35 268 285 264 258 115 80 291 9
p edge 320 1387
e 0 96 6.0
e 0 39 1.0
e 0 140 4.0
e 0 124 7.0
e 0 203 3.0
e 1 211 4.0
e 1 221 1.0
e 1 32 5.0
e 2 132 1.0
e 2 187 1.0
e 3 178 1.0
e 3 195 2.0
e 3 131 1.0
e 4 84 70.0
e 4 217 47.0
e 4 199 1.0
e 5 284 4.0
e 5 293 1.0
e 5 83 15.0
e 6 64 2.0
e 6 175 1.0
e 6 20 5.0
e 7 86 17.0
e 7 133 2.0
e 8 284 1.0
e 8 305 1.0
e 9 148 11.0
e 9 167 73.0
e 9 248 98.0
e 9 118 11.0
e 9 143 38.0
e 9 84 58.0
e 9 116 47.0
e 9 123 44.0
e 9 169 42.0
e 9 55 57.0
e 9 130 69.0
e 9 96 95.0
e 9 221 6.0
e 9 53 24.0
e 9 32 42.0
e 9 72 72.0
e 9 263 36.0
e 9 119 15.0
e 9 48 62.0
e 9 21 10.0
e 9 13 76.0
e 9 37 21.0
e 9 261 86.0
e 9 129 89.0
e 9 125 93.0
e 9 316 63.0
e 9 131 8.0
e 9 38 60.0
e 9 267 76.0
e 9 114 4.0
e 9 170 20.0
e 9 109 18.0
e 9 124 25.0
e 9 255 83.0
e 9 196 5.0
e 9 39 31.0
e 9 164 92.0
e 10 9 74.0
e 10 25 13.0
e 11 273 1.0
e 11 318 6.0
e 12 102 18.0
e 12 306 1.0
e 13 270 25.0
e 13 129 6.0
e 13 61 14.0
e 13 90 24.0
e 13 198 1.0
e 13 239 14.0
e 13 246 22.0
e 13 137 3.0
e 13 308 1.0
e 14 187 7.0
e 14 73 9.0
e 14 314 24.0
e 14 172 11.0
e 14 317 38.0
e 15 74 1.0
e 15 257 40.0
e 16 287 2.0
e 16 34 2.0
e 17 130 1.0
e 17 162 97.0
e 18 59 8.0
e 18 202 3.0
e 18 160 2.0
e 19 207 4.0
e 19 52 7.0
e 19 101 8.0
e 19 11 6.0
e 19 295 11.0
e 20 166 5.0
e 20 306 2.0
e 21 29 1.0
e 21 162 26.0
e 21 194 3.0
e 21 227 1.0
e 22 251 4.0
e 22 63 1.0
e 22 280 1.0
e 23 299 16.0
e 23 222 14.0
e 23 61 12.0
e 23 220 1.0
e 23 183 25.0
e 23 63 24.0
e 23 276 18.0
e 23 37 1.0
e 23 60 19.0
e 23 119 17.0
e 24 106 8.0
e 24 177 2.0
e 25 33 2.0
e 25 163 5.0
e 25 94 15.0
e 25 46 20.0
e 25 285 61.0
e 25 272 19.0
e 25 26 3.0
e 25 189 5.0
e 25 82 14.0
e 26 215 1.0
e 26 195 5.0
e 27 31 3.0
e 27 234 11.0
e 28 34 1.0
e 28 310 60.0
e 28 173 22.0
e 29 102 7.0
e 30 16 1.0
e 30 231 4.0
e 30 21 2.0
e 31 175 1.0
e 32 76 5.0
e 33 68 2.0
e 35 38 25.0
e 35 201 47.0
e 35 137 5.0
e 35 36 32.0
e 35 135 37.0
e 35 315 4.0
e 35 105 21.0
e 35 222 49.0
e 35 20 79.0
e 35 282 76.0
e 35 198 97.0
e 35 92 11.0
e 35 106 69.0
e 35 66 47.0
e 35 87 1.0
e 35 60 65.0
e 35 235 74.0
e 35 228 97.0
e 35 176 54.0
e 35 21 70.0
e 35 10 71.0
e 35 270 19.0
e 35 98 58.0
e 35 252 53.0
e 35 67 83.0
e 35 299 99.0
e 35 202 70.0
e 35 230 92.0
e 35 107 1.0
e 35 226 9.0
e 35 308 46.0
e 35 126 47.0
e 35 197 24.0
e 35 243 46.0
e 35 33 38.0
e 35 123 20.0
e 35 41 29.0
e 36 293 1.0
e 36 250 1.0
e 37 239 9.0
e 37 278 11.0
e 37 189 10.0
e 39 213 4.0
e 40 203 1.0
e 40 133 2.0
e 41 34 4.0
e 41 23 17.0
e 41 228 7.0
e 41 263 7.0
e 42 117 6.0
e 42 172 1.0
e 42 103 6.0
e 43 83 15.0
e 43 6 1.0
e 44 61 5.0
e 44 293 5.0
e 44 161 1.0
e 45 203 2.0
e 45 204 1.0
e 46 118 2.0
e 47 81 8.0
e 47 38 2.0
e 48 12 5.0
e 48 199 9.0
e 48 315 12.0
e 48 229 9.0
e 49 292 1.0
e 49 101 2.0
e 50 74 2.0
e 50 62 16.0
e 51 81 7.0
e 51 283 4.0
e 51 254 11.0
e 51 101 10.0
e 51 232 12.0
e 52 148 3.0
e 53 0 23.0
e 53 28 9.0
e 53 299 18.0
e 53 130 19.0
e 53 44 22.0
e 53 224 15.0
e 53 275 5.0
e 53 180 12.0
e 53 288 7.0
e 54 9 6.0
e 54 229 3.0
e 54 42 1.0
e 55 311 3.0
e 56 110 5.0
e 56 207 3.0
e 56 71 2.0
e 56 288 10.0
e 56 297 11.0
e 57 212 20.0
e 57 162 92.0
e 57 241 7.0
e 57 173 23.0
e 57 41 8.0
e 58 59 10.0
e 58 42 3.0
e 59 115 79.0
e 59 161 11.0
e 59 235 22.0
e 60 283 5.0
e 62 90 2.0
e 62 129 13.0
e 62 158 1.0
e 62 271 2.0
e 62 11 14.0
e 62 110 17.0
e 62 305 15.0
e 62 29 5.0
e 62 33 19.0
e 63 135 5.0
e 64 225 9.0
e 64 234 1.0
e 64 75 3.0
e 64 53 4.0
e 65 61 1.0
e 65 268 99.0
e 65 71 5.0
e 65 153 5.0
e 65 241 5.0
e 66 261 53.0
e 66 245 78.0
e 66 141 69.0
e 66 100 42.0
e 66 120 6.0
e 66 170 15.0
e 66 57 76.0
e 66 246 20.0
e 66 155 52.0
e 66 52 60.0
e 66 251 50.0
e 66 187 51.0
e 66 260 88.0
e 66 70 49.0
e 66 30 31.0
e 66 40 25.0
e 66 32 35.0
e 66 316 18.0
e 66 235 67.0
e 66 273 96.0
e 66 157 62.0
e 66 247 98.0
e 66 291 92.0
e 66 53 66.0
e 66 102 83.0
e 66 301 4.0
e 66 9 58.0
e 66 219 65.0
e 66 241 37.0
e 66 34 76.0
e 66 255 42.0
e 66 25 1.0
e 66 41 77.0
e 66 28 64.0
e 66 220 50.0
e 66 256 15.0
e 67 49 3.0
e 68 11 1.0
e 69 67 4.0
e 69 83 16.0
e 69 271 6.0
e 69 78 1.0
e 69 107 12.0
e 70 133 1.0
e 72 88 1.0
e 73 120 1.0
e 73 137 5.0
e 75 253 2.0
e 76 200 1.0
e 77 264 82.0
e 77 101 2.0
e 77 184 1.0
e 78 239 1.0
e 78 53 3.0
e 79 264 3.0
e 79 260 1.0
e 80 60 32.0
e 80 264 12.0
e 80 34 43.0
e 80 8 30.0
e 80 247 67.0
e 80 72 68.0
e 80 161 89.0
e 80 47 31.0
e 80 28 81.0
e 80 94 32.0
e 80 304 60.0
e 80 298 91.0
e 80 108 85.0
e 80 193 30.0
e 80 165 49.0
e 80 101 22.0
e 80 127 11.0
e 80 216 92.0
e 80 230 72.0
e 80 102 25.0
e 80 178 42.0
e 80 111 72.0
e 80 95 65.0
e 80 272 59.0
e 80 22 6.0
e 80 112 69.0
e 80 96 99.0
e 80 209 100.0
e 80 269 99.0
e 80 25 74.0
e 80 278 97.0
e 80 263 15.0
e 80 110 2.0
e 80 148 74.0
e 80 231 18.0
e 80 137 69.0
e 80 45 86.0
e 81 93 5.0
e 81 62 16.0
e 81 28 4.0
e 82 70 1.0
e 83 277 30.0
e 83 191 23.0
e 83 252 7.0
e 83 105 50.0
e 83 231 9.0
e 83 79 28.0
e 83 269 21.0
e 83 53 20.0
e 83 10 13.0
e 83 58 2.0
e 83 71 12.0
e 83 144 31.0
e 83 295 15.0
e 83 225 20.0
e 83 36 14.0
e 83 102 37.0
e 84 165 93.0
e 84 6 32.0
e 84 48 25.0
e 84 5 92.0
e 84 25 21.0
e 84 308 98.0
e 84 209 40.0
e 84 68 67.0
e 84 199 72.0
e 84 37 75.0
e 84 149 48.0
e 84 311 38.0
e 84 279 67.0
e 84 269 68.0
e 84 8 54.0
e 84 42 56.0
e 84 190 83.0
e 84 164 31.0
e 84 110 26.0
e 84 124 30.0
e 84 69 44.0
e 84 101 60.0
e 84 196 19.0
e 84 93 14.0
e 84 198 6.0
e 84 19 68.0
e 84 202 45.0
e 84 219 68.0
e 84 29 28.0
e 84 62 70.0
e 84 264 97.0
e 84 227 43.0
e 84 162 45.0
e 84 76 80.0
e 84 210 62.0
e 85 57 25.0
e 85 107 7.0
e 85 8 44.0
e 85 87 50.0
e 85 48 49.0
e 85 111 21.0
e 85 185 11.0
e 85 281 34.0
e 85 230 25.0
e 85 262 8.0
e 85 157 26.0
e 85 228 3.0
e 85 101 37.0
e 85 54 34.0
e 85 61 43.0
e 85 55 34.0
e 85 139 22.0
e 85 58 38.0
e 85 204 48.0
e 86 91 15.0
e 86 267 17.0
e 86 183 36.0
e 86 84 35.0
e 86 118 11.0
e 86 218 4.0
e 86 214 42.0
e 86 50 4.0
e 86 114 22.0
e 87 100 4.0
e 87 81 1.0
e 87 104 10.0
e 88 8 2.0
e 89 213 4.0
e 89 156 1.0
e 90 295 4.0
e 91 275 1.0
e 92 157 10.0
e 92 131 5.0
e 92 54 5.0
e 92 191 3.0
e 93 59 9.0
e 94 295 8.0
e 94 162 75.0
e 94 226 11.0
e 95 100 3.0
e 95 270 9.0
e 95 110 9.0
e 95 204 3.0
e 97 225 1.0
e 97 205 1.0
e 98 170 12.0
e 98 60 6.0
e 98 84 32.0
e 98 253 10.0
e 99 49 3.0
e 99 216 6.0
e 99 162 33.0
e 102 51 20.0
e 102 301 9.0
e 102 306 18.0
e 102 187 2.0
e 102 240 7.0
e 103 285 54.0
e 103 304 2.0
e 104 253 2.0
e 106 64 12.0
e 106 302 14.0
e 106 31 11.0
e 108 253 2.0
e 109 197 7.0
e 109 251 1.0
e 109 249 3.0
e 109 106 2.0
e 112 6 2.0
e 113 171 4.0
e 113 181 5.0
e 113 238 1.0
e 115 44 36.0
e 115 170 93.0
e 115 222 97.0
e 115 36 15.0
e 115 233 16.0
e 115 139 54.0
e 115 83 37.0
e 115 144 29.0
e 115 119 25.0
e 115 156 32.0
e 115 188 9.0
e 115 45 89.0
e 115 60 53.0
e 115 308 92.0
e 115 84 37.0
e 115 268 1.0
e 115 177 31.0
e 115 15 80.0
e 115 94 77.0
e 115 317 77.0
e 115 130 81.0
e 115 35 64.0
e 115 78 19.0
e 115 77 5.0
e 115 29 18.0
e 115 163 90.0
e 115 314 15.0
e 115 224 88.0
e 115 202 100.0
e 115 318 70.0
e 115 112 76.0
e 115 266 76.0
e 115 300 71.0
e 115 311 62.0
e 115 55 100.0
e 115 279 28.0
e 116 74 1.0
e 117 259 10.0
e 117 14 11.0
e 117 32 10.0
e 117 86 19.0
e 121 239 4.0
e 121 26 5.0
e 121 300 1.0
e 122 43 5.0
e 122 286 18.0
e 122 270 2.0
e 125 110 1.0
e 126 217 58.0
e 126 231 4.0
e 126 188 39.0
e 126 159 11.0
e 127 306 1.0
e 127 77 4.0
e 128 150 4.0
e 128 100 1.0
e 132 45 1.0
e 134 202 1.0
e 134 10 1.0
e 135 64 11.0
e 136 235 5.0
e 136 194 11.0
e 138 146 2.0
e 138 139 1.0
e 138 105 1.0
e 140 10 1.0
e 141 308 24.0
e 141 259 16.0
e 141 5 10.0
e 141 119 24.0
e 141 55 15.0
e 141 200 20.0
e 141 132 16.0
e 141 165 16.0
e 141 139 19.0
e 142 152 13.0
e 142 262 1.0
e 142 150 1.0
e 143 167 1.0
e 144 87 7.0
e 145 130 5.0
e 145 197 2.0
e 146 307 1.0
e 147 301 2.0
e 147 310 96.0
e 149 101 1.0
e 149 97 10.0
e 149 74 4.0
e 149 20 11.0
e 150 307 1.0
e 151 16 5.0
e 151 60 11.0
e 151 223 4.0
e 151 154 19.0
e 151 242 1.0
e 152 156 6.0
e 152 48 21.0
e 152 291 8.0
e 152 253 6.0
e 152 286 27.0
e 152 256 21.0
e 152 262 4.0
e 152 184 24.0
e 152 249 2.0
e 153 232 2.0
e 154 307 6.0
e 154 125 11.0
e 154 252 17.0
e 154 188 61.0
e 154 253 2.0
e 154 122 23.0
e 154 201 6.0
e 154 245 7.0
e 154 84 60.0
e 155 175 1.0
e 158 248 9.0
e 158 155 12.0
e 158 275 17.0
e 158 230 20.0
e 158 115 24.0
e 158 166 14.0
e 158 149 14.0
e 158 159 10.0
e 158 209 2.0
e 159 15 4.0
e 160 283 46.0
e 160 229 13.0
e 160 117 34.0
e 160 73 5.0
e 160 5 2.0
e 160 144 42.0
e 160 45 17.0
e 160 265 81.0
e 160 173 1.0
e 160 273 20.0
e 160 148 20.0
e 160 194 50.0
e 160 97 11.0
e 160 277 11.0
e 160 239 30.0
e 160 131 7.0
e 160 291 18.0
e 160 274 9.0
e 162 209 25.0
e 162 98 97.0
e 162 205 40.0
e 162 115 35.0
e 162 203 33.0
e 162 73 68.0
e 162 97 66.0
e 162 87 93.0
e 162 231 16.0
e 162 72 3.0
e 162 166 48.0
e 162 229 91.0
e 162 206 44.0
e 162 24 58.0
e 162 186 58.0
e 162 266 54.0
e 162 104 31.0
e 162 241 16.0
e 162 55 7.0
e 162 318 60.0
e 162 32 7.0
e 162 74 5.0
e 162 168 92.0
e 162 8 55.0
e 162 179 97.0
e 162 100 64.0
e 162 42 4.0
e 162 140 75.0
e 162 67 39.0
e 162 61 54.0
e 162 56 59.0
e 163 294 5.0
e 164 286 48.0
e 168 272 1.0
e 168 311 10.0
e 168 304 2.0
e 168 274 1.0
e 169 227 12.0
e 169 112 12.0
e 169 77 1.0
e 169 247 1.0
e 171 270 4.0
e 171 278 1.0
e 172 149 1.0
e 173 34 8.0
e 173 75 17.0
e 173 275 16.0
e 173 236 13.0
e 173 156 11.0
e 173 304 4.0
e 173 181 5.0
e 174 142 1.0
e 174 14 5.0
e 174 279 2.0
e 176 185 13.0
e 176 256 11.0
e 176 305 1.0
e 176 246 2.0
e 177 308 1.0
e 177 126 12.0
e 177 161 12.0
e 179 222 2.0
e 180 172 4.0
e 180 194 1.0
e 180 251 2.0
e 180 279 12.0
e 182 234 36.0
e 182 165 47.0
e 182 208 38.0
e 182 225 33.0
e 182 220 25.0
e 182 150 6.0
e 182 314 21.0
e 182 67 4.0
e 182 46 1.0
e 182 94 30.0
e 182 221 47.0
e 182 27 34.0
e 182 131 33.0
e 182 294 24.0
e 182 81 3.0
e 182 69 41.0
e 182 147 18.0
e 182 219 40.0
e 182 108 36.0
e 183 215 24.0
e 183 223 16.0
e 183 63 32.0
e 183 95 14.0
e 183 129 12.0
e 183 216 39.0
e 183 292 28.0
e 183 260 26.0
e 183 102 18.0
e 183 12 23.0
e 183 217 19.0
e 183 51 25.0
e 183 70 42.0
e 183 237 18.0
e 183 65 28.0
e 183 220 31.0
e 183 131 11.0
e 185 110 13.0
e 185 182 25.0
e 185 10 21.0
e 185 129 5.0
e 185 251 8.0
e 185 196 6.0
e 185 298 16.0
e 185 314 94.0
e 186 204 1.0
e 188 153 14.0
e 188 91 41.0
e 188 286 59.0
e 188 108 18.0
e 188 86 27.0
e 188 87 10.0
e 188 9 40.0
e 188 49 55.0
e 188 114 72.0
e 188 75 86.0
e 188 76 43.0
e 188 62 21.0
e 188 253 56.0
e 188 52 60.0
e 188 161 96.0
e 188 54 55.0
e 188 192 36.0
e 188 310 41.0
e 188 236 46.0
e 188 92 83.0
e 188 131 22.0
e 188 222 19.0
e 188 213 55.0
e 188 231 28.0
e 188 267 54.0
e 188 22 47.0
e 188 167 12.0
e 188 56 58.0
e 188 183 32.0
e 188 241 69.0
e 188 16 2.0
e 188 43 93.0
e 188 33 36.0
e 188 66 41.0
e 189 81 7.0
e 190 166 1.0
e 192 149 12.0
e 192 225 6.0
e 193 0 6.0
e 194 214 23.0
e 198 130 4.0
e 198 15 1.0
e 200 237 3.0
e 201 20 8.0
e 201 298 3.0
e 201 312 11.0
e 205 315 11.0
e 205 245 4.0
e 205 15 6.0
e 206 204 24.0
e 206 91 15.0
e 206 67 34.0
e 206 18 20.0
e 206 163 13.0
e 206 277 9.0
e 206 310 11.0
e 206 33 31.0
e 206 108 8.0
e 206 197 15.0
e 206 64 20.0
e 206 302 42.0
e 206 312 6.0
e 206 266 49.0
e 206 272 16.0
e 206 55 14.0
e 206 294 22.0
e 206 313 42.0
e 207 270 5.0
e 207 131 6.0
e 207 251 8.0
e 208 209 2.0
e 210 217 63.0
e 210 259 32.0
e 210 256 7.0
e 210 113 21.0
e 210 192 31.0
e 210 141 43.0
e 210 199 6.0
e 210 21 8.0
e 210 149 29.0
e 210 206 41.0
e 210 79 16.0
e 210 311 19.0
e 210 135 41.0
e 210 260 11.0
e 210 133 47.0
e 210 291 20.0
e 210 316 29.0
e 210 35 51.0
e 211 52 12.0
e 211 309 10.0
e 211 316 8.0
e 211 178 1.0
e 212 267 27.0
e 212 78 23.0
e 212 276 84.0
e 212 110 42.0
e 212 84 20.0
e 212 79 53.0
e 212 47 89.0
e 212 191 12.0
e 212 77 58.0
e 212 51 41.0
e 212 113 50.0
e 212 134 62.0
e 212 173 65.0
e 212 206 35.0
e 212 170 14.0
e 212 37 39.0
e 212 140 95.0
e 212 202 36.0
e 212 207 17.0
e 212 294 58.0
e 212 109 79.0
e 212 44 87.0
e 212 234 31.0
e 212 82 4.0
e 212 105 74.0
e 212 52 93.0
e 212 268 100.0
e 212 12 70.0
e 212 193 73.0
e 212 182 82.0
e 212 33 57.0
e 212 100 53.0
e 212 177 66.0
e 212 74 76.0
e 212 40 57.0
e 212 96 30.0
e 214 93 11.0
e 214 127 1.0
e 214 144 33.0
e 214 160 2.0
e 214 4 6.0
e 214 119 42.0
e 214 98 20.0
e 214 128 5.0
e 214 317 49.0
e 214 74 23.0
e 214 314 49.0
e 214 69 22.0
e 214 259 17.0
e 214 304 48.0
e 214 109 39.0
e 214 70 24.0
e 214 305 14.0
e 216 157 6.0
e 216 206 32.0
e 217 232 6.0
e 217 280 22.0
e 217 156 37.0
e 217 9 78.0
e 217 292 68.0
e 217 64 64.0
e 217 86 8.0
e 217 288 36.0
e 217 38 21.0
e 217 268 66.0
e 217 10 23.0
e 217 245 75.0
e 217 96 83.0
e 217 304 48.0
e 217 32 56.0
e 217 17 76.0
e 217 143 38.0
e 217 53 40.0
e 217 259 94.0
e 217 265 99.0
e 217 272 62.0
e 217 98 48.0
e 217 193 75.0
e 217 74 65.0
e 217 200 76.0
e 217 30 29.0
e 217 167 53.0
e 217 79 37.0
e 217 29 77.0
e 217 68 46.0
e 217 233 37.0
e 217 198 20.0
e 217 129 11.0
e 218 216 5.0
e 218 96 8.0
e 218 91 10.0
e 218 179 6.0
e 233 103 5.0
e 234 35 65.0
e 235 215 1.0
e 235 253 10.0
e 235 151 9.0
e 235 157 22.0
e 235 260 15.0
e 235 60 2.0
e 236 98 3.0
e 236 136 1.0
e 236 273 4.0
e 237 215 3.0
e 238 137 1.0
e 240 159 19.0
e 240 246 14.0
e 240 183 4.0
e 240 107 5.0
e 240 137 24.0
e 240 257 23.0
e 240 203 16.0
e 240 258 34.0
e 240 307 1.0
e 242 13 19.0
e 242 18 4.0
e 242 51 3.0
e 242 311 4.0
e 243 188 24.0
e 244 129 3.0
e 244 180 7.0
e 244 104 7.0
e 244 271 1.0
e 244 224 6.0
e 246 218 10.0
e 247 211 10.0
e 247 100 6.0
e 248 261 5.0
e 248 167 10.0
e 248 310 33.0
e 249 231 5.0
e 250 203 1.0
e 252 67 9.0
e 252 263 7.0
e 254 115 92.0
e 255 299 6.0
e 257 21 35.0
e 257 268 91.0
e 257 70 18.0
e 257 296 18.0
e 257 304 31.0
e 257 127 35.0
e 257 124 49.0
e 257 33 17.0
e 257 37 44.0
e 257 234 28.0
e 257 43 7.0
e 257 128 24.0
e 257 276 25.0
e 257 91 7.0
e 257 284 40.0
e 257 144 4.0
e 257 185 40.0
e 258 224 39.0
e 258 174 38.0
e 258 95 98.0
e 258 21 69.0
e 258 74 99.0
e 258 125 56.0
e 258 235 30.0
e 258 184 35.0
e 258 212 12.0
e 258 213 60.0
e 258 246 40.0
e 258 259 73.0
e 258 210 24.0
e 258 66 79.0
e 258 12 37.0
e 258 1 27.0
e 258 7 8.0
e 258 78 66.0
e 258 154 47.0
e 258 59 32.0
e 258 67 76.0
e 258 214 70.0
e 258 294 33.0
e 258 276 72.0
e 258 58 74.0
e 258 132 43.0
e 258 28 57.0
e 258 118 5.0
e 258 133 91.0
e 258 156 72.0
e 258 81 93.0
e 258 107 19.0
e 258 153 89.0
e 258 134 14.0
e 258 222 42.0
e 258 60 6.0
e 264 15 87.0
e 264 40 58.0
e 264 241 67.0
e 264 214 76.0
e 264 260 75.0
e 264 203 74.0
e 264 212 89.0
e 264 173 12.0
e 264 190 50.0
e 264 213 87.0
e 264 161 55.0
e 264 204 75.0
e 264 45 62.0
e 264 238 13.0
e 264 138 2.0
e 264 251 1.0
e 264 256 62.0
e 264 12 59.0
e 264 168 23.0
e 264 78 63.0
e 264 231 5.0
e 264 133 53.0
e 264 228 83.0
e 264 297 22.0
e 264 89 76.0
e 264 100 32.0
e 264 134 30.0
e 264 141 89.0
e 264 49 90.0
e 264 255 20.0
e 264 218 39.0
e 264 169 12.0
e 264 215 91.0
e 265 234 18.0
e 265 315 98.0
e 265 278 51.0
e 265 218 38.0
e 265 111 15.0
e 265 0 79.0
e 265 210 40.0
e 265 86 6.0
e 265 35 27.0
e 265 163 96.0
e 265 291 71.0
e 265 56 12.0
e 265 5 100.0
e 265 142 6.0
e 265 84 88.0
e 265 8 35.0
e 265 190 92.0
e 265 213 59.0
e 265 221 94.0
e 265 121 42.0
e 265 42 13.0
e 265 166 71.0
e 265 43 20.0
e 265 298 4.0
e 265 263 49.0
e 265 127 80.0
e 265 301 87.0
e 265 72 100.0
e 265 96 7.0
e 265 222 20.0
e 265 90 35.0
e 265 223 27.0
e 265 16 27.0
e 265 77 91.0
e 265 66 11.0
e 268 238 93.0
e 268 294 34.0
e 268 53 56.0
e 268 149 72.0
e 268 143 92.0
e 268 106 55.0
e 268 222 16.0
e 268 117 7.0
e 268 213 11.0
e 268 137 49.0
e 268 303 63.0
e 268 100 97.0
e 268 289 59.0
e 268 302 20.0
e 268 205 66.0
e 268 123 38.0
e 268 150 89.0
e 268 87 19.0
e 268 267 97.0
e 268 86 44.0
e 268 11 91.0
e 268 125 5.0
e 268 220 92.0
e 268 284 100.0
e 268 36 24.0
e 268 60 13.0
e 268 290 12.0
e 268 168 98.0
e 268 131 25.0
e 268 254 72.0
e 268 26 43.0
e 268 88 91.0
e 271 220 4.0
e 271 315 21.0
e 275 58 11.0
e 276 56 11.0
e 277 260 26.0
e 277 77 10.0
e 277 151 21.0
e 277 162 93.0
e 277 298 49.0
e 277 261 26.0
e 277 75 20.0
e 277 35 56.0
e 277 208 30.0
e 277 104 42.0
e 277 229 8.0
e 277 216 11.0
e 277 84 64.0
e 277 49 24.0
e 277 69 14.0
e 277 187 39.0
e 280 138 4.0
e 281 290 15.0
e 281 123 2.0
e 282 51 3.0
e 285 154 100.0
e 285 115 1.0
e 285 262 63.0
e 285 289 9.0
e 285 306 72.0
e 285 268 85.0
e 285 251 24.0
e 285 163 56.0
e 285 73 78.0
e 285 312 63.0
e 285 266 62.0
e 285 263 65.0
e 285 283 49.0
e 285 231 61.0
e 285 100 46.0
e 285 248 62.0
e 285 217 30.0
e 285 5 87.0
e 285 198 74.0
e 285 304 21.0
e 285 204 54.0
e 285 170 100.0
e 285 219 71.0
e 285 33 20.0
e 285 272 55.0
e 285 225 11.0
e 285 220 45.0
e 285 45 40.0
e 285 280 6.0
e 285 64 74.0
e 285 189 33.0
e 285 158 60.0
e 285 173 70.0
e 285 125 4.0
e 285 244 32.0
e 286 283 54.0
e 286 274 85.0
e 286 39 27.0
e 286 308 59.0
e 286 68 65.0
e 286 233 23.0
e 286 160 30.0
e 286 270 99.0
e 286 22 25.0
e 286 302 30.0
e 286 63 29.0
e 286 245 11.0
e 286 64 72.0
e 286 241 16.0
e 286 228 32.0
e 286 23 51.0
e 286 255 3.0
e 286 256 42.0
e 286 156 66.0
e 286 210 44.0
e 286 1 14.0
e 286 313 70.0
e 286 244 58.0
e 286 103 88.0
e 286 172 15.0
e 286 82 80.0
e 286 222 18.0
e 286 292 84.0
e 286 139 50.0
e 286 142 77.0
e 286 277 69.0
e 286 158 99.0
e 286 49 21.0
e 287 242 7.0
e 287 44 5.0
e 290 205 9.0
e 290 23 11.0
e 290 131 14.0
e 290 272 12.0
e 290 207 3.0
e 290 25 9.0
e 290 231 18.0
e 290 217 35.0
e 291 165 48.0
e 291 196 78.0
e 291 317 38.0
e 291 161 40.0
e 291 185 79.0
e 291 32 66.0
e 291 83 5.0
e 291 101 61.0
e 291 199 31.0
e 291 116 92.0
e 291 5 99.0
e 291 272 50.0
e 291 219 90.0
e 291 192 34.0
e 291 284 45.0
e 291 168 13.0
e 291 157 48.0
e 291 134 93.0
e 291 315 25.0
e 291 136 65.0
e 291 143 52.0
e 291 84 22.0
e 291 38 16.0
e 291 61 46.0
e 291 226 91.0
e 291 77 97.0
e 291 183 89.0
e 291 94 8.0
e 291 281 8.0
e 291 0 73.0
e 291 133 61.0
e 291 292 43.0
e 296 61 2.0
e 297 185 1.0
e 300 179 5.0
e 302 284 19.0
e 302 229 17.0
e 302 75 5.0
e 302 138 2.0
e 302 3 21.0
e 302 285 98.0
e 303 210 39.0
e 303 195 6.0
e 303 64 2.0
e 303 155 11.0
e 309 175 22.0
e 309 123 7.0
e 309 285 40.0
e 309 235 14.0
e 309 172 19.0
e 309 33 21.0
e 309 116 13.0
e 309 220 24.0
e 309 234 4.0
e 310 259 43.0
e 310 55 40.0
e 310 287 7.0
e 310 85 66.0
e 310 151 44.0
e 310 168 61.0
e 310 36 49.0
e 310 149 94.0
e 310 270 38.0
e 310 81 19.0
e 310 254 79.0
e 310 289 74.0
e 310 227 41.0
e 310 63 19.0
e 310 171 3.0
e 310 201 4.0
e 310 14 6.0
e 310 96 88.0
e 310 113 9.0
e 310 166 14.0
e 310 62 24.0
e 310 86 75.0
e 310 255 41.0
e 310 160 32.0
e 310 71 93.0
e 310 286 6.0
e 310 78 28.0
e 310 3 54.0
e 310 299 47.0
e 310 130 80.0
e 310 288 29.0
e 310 50 26.0
e 314 215 99.0
e 314 133 46.0
e 314 124 42.0
e 314 40 88.0
e 314 280 24.0
e 314 48 100.0
e 314 200 53.0
e 314 229 13.0
e 314 294 88.0
e 314 10 43.0
e 314 312 76.0
e 314 43 30.0
e 314 105 99.0
e 314 231 25.0
e 314 207 48.0
e 314 219 55.0
e 314 181 82.0
e 314 148 15.0
e 314 85 11.0
e 314 243 48.0
e 314 251 91.0
e 314 170 62.0
e 314 87 21.0
e 314 156 56.0
e 314 69 40.0
e 314 193 46.0
e 314 164 98.0
e 314 22 57.0
e 314 134 76.0
e 314 96 50.0
e 314 233 53.0
e 314 101 41.0
e 315 104 10.0
e 315 249 2.0
e 315 294 4.0
e 315 60 4.0
e 317 176 16.0
e 317 138 3.0
e 317 254 44.0
e 317 139 86.0
e 317 288 91.0
e 317 212 100.0
e 317 279 78.0
e 317 215 87.0
e 317 304 1.0
e 317 37 29.0
e 317 13 7.0
e 317 42 32.0
e 317 192 71.0
e 317 305 97.0
e 317 158 38.0
e 317 289 5.0
e 317 85 33.0
e 317 131 13.0
e 317 133 42.0
e 317 232 77.0
e 317 222 1.0
e 317 180 62.0
e 317 35 58.0
e 317 72 34.0
e 317 28 76.0
e 317 177 85.0
e 317 142 38.0
e 317 102 91.0
e 317 175 84.0
e 317 249 47.0
e 317 303 99.0
e 317 86 56.0
e 317 165 70.0
e 318 6 5.0
e 318 50 7.0
e 319 39 2.0
e 319 93 4.0
